(set-logic HORN)
(declare-fun state (Int (Array Int Int) (Array Int Int) (Array Int Int) (Array Int Int) Int Int (Array Int Int) (Array Int Int) Int Int Int Int Int Int Int Int Int Int Int Int Int Int Int Int Int Int Int Bool Bool Bool Bool Bool Bool (Array Int Int)) Bool)
(assert (forall ((|A_27| Int) (|D1_13| (Array Int Int)) (|C_27| (Array Int Int)) (|D_27| (Array Int Int)) (|E_27| (Array Int Int)) (|F_27| Int) (|G_27| Int) (|H_27| (Array Int Int)) (|I_27| (Array Int Int)) (|J_27| Int) (|K_27| Int) (|L_27| Int) (|E1_8| Int) (|N_27| Int) (|F1_5| Int) (|P_27| Int) (|Q_27| Int) (|R_27| Int) (|S_27| Int) (|T_27| Int) (|G1_0| Int) (|V_27| Int) (|H1_0| Int) (|X_27| Int) (|Y_27| Int) (|I1_0| Int) (|A1_27| Int) (|B1_27| Int) (|C1_27| Bool) (|.loc.6| Bool) (|.loc.7| Bool) (|.loc.8| Bool) (|.loc.9| Bool) (|.loc.10| Bool) (|D1_0| (Array Int Int)) (|.x.1057| Int) (|.x.1055| (Array Int Int)) (|.x.1053| Int) (|.x.1051| (Array Int Int)) (|.x.1047| Int) (|.x.1049| (Array Int Int)) (|.x.1066| Int) (|.x.1069| Int) (|.x.1075| Bool) (|.x.1048| (Array Int Int)) (|.x.1063| Int) (|.x.1071| Int) (|.x.1073| Int) (|.x.1074| Int) (|.x.1059| Int) (|.x.1061| Int) (|.x.1067| Int) (|.x.1072| Int) (|.x.1058| Int) (|.loc.13| Bool) (|.loc.15| Bool) (|.loc.11| Bool) (|.loc.12| Bool) (|.x.1065| Int) (|.x.1068| Int) (|.loc.14| Bool) (|.x.1070| Int) (|.x.1050| (Array Int Int)) (|.x.1054| (Array Int Int)) (|.x.1052| Int) (|.x.1056| Int) (|.x.1060| Int) (|.x.1062| Int) (|.x.1064| Int) (|.xtv.1| (Array Int Int))) (=> (and (and (and .loc.9 (and .loc.8 (and .loc.6 (not .loc.7)))) (not .loc.10)) (and (and (and (and (and (= D_27 E_27) (not C1_27)) (= J_27 K_27)) (= F_27 G_27)) (= H_27 I_27)) (= D1_13 C_27))) (state |A_27| |D1_13| |C_27| |D_27| |E_27| |F_27| |G_27| |H_27| |I_27| |J_27| |K_27| |L_27| |E1_8| |N_27| |F1_5| |P_27| |Q_27| |R_27| |S_27| |T_27| |G1_0| |V_27| |H1_0| |X_27| |Y_27| |I1_0| |A1_27| |B1_27| |C1_27| |.loc.6| |.loc.7| |.loc.8| |.loc.9| |.loc.10| |D1_0|))))
(assert (forall ((|A_27| Int) (|D1_13| (Array Int Int)) (|C_27| (Array Int Int)) (|D_27| (Array Int Int)) (|E_27| (Array Int Int)) (|F_27| Int) (|G_27| Int) (|H_27| (Array Int Int)) (|I_27| (Array Int Int)) (|J_27| Int) (|K_27| Int) (|L_27| Int) (|E1_8| Int) (|N_27| Int) (|F1_5| Int) (|P_27| Int) (|Q_27| Int) (|R_27| Int) (|S_27| Int) (|T_27| Int) (|G1_0| Int) (|V_27| Int) (|H1_0| Int) (|X_27| Int) (|Y_27| Int) (|I1_0| Int) (|A1_27| Int) (|B1_27| Int) (|C1_27| Bool) (|.loc.6| Bool) (|.loc.7| Bool) (|.loc.8| Bool) (|.loc.9| Bool) (|.loc.10| Bool) (|D1_0| (Array Int Int)) (|.x.1057| Int) (|.x.1055| (Array Int Int)) (|.x.1053| Int) (|.x.1051| (Array Int Int)) (|.x.1047| Int) (|.x.1049| (Array Int Int)) (|.x.1066| Int) (|.x.1069| Int) (|.x.1075| Bool) (|.x.1048| (Array Int Int)) (|.x.1063| Int) (|.x.1071| Int) (|.x.1073| Int) (|.x.1074| Int) (|.x.1059| Int) (|.x.1061| Int) (|.x.1067| Int) (|.x.1072| Int) (|.x.1058| Int) (|.loc.13| Bool) (|.loc.15| Bool) (|.loc.11| Bool) (|.loc.12| Bool) (|.x.1065| Int) (|.x.1068| Int) (|.loc.14| Bool) (|.x.1070| Int) (|.x.1050| (Array Int Int)) (|.x.1054| (Array Int Int)) (|.x.1052| Int) (|.x.1056| Int) (|.x.1060| Int) (|.x.1062| Int) (|.x.1064| Int) (|.xtv.1| (Array Int Int))) (=> (and (state |A_27| |D1_13| |C_27| |D_27| |E_27| |F_27| |G_27| |H_27| |I_27| |J_27| |K_27| |L_27| |E1_8| |N_27| |F1_5| |P_27| |Q_27| |R_27| |S_27| |T_27| |G1_0| |V_27| |H1_0| |X_27| |Y_27| |I1_0| |A1_27| |B1_27| |C1_27| |.loc.6| |.loc.7| |.loc.8| |.loc.9| |.loc.10| |D1_0|) (let ((.def_45 (not .loc.7))) (let ((.def_49 (not .loc.10))) (let ((.def_94 (= Q_27 .x.1063))) (let ((.def_97 (= Y_27 .x.1071))) (let ((.def_100 (= A1_27 .x.1073))) (let ((.def_103 (= B1_27 .x.1074))) (let ((.def_105 (= C1_27 .x.1075))) (let ((.def_110 (= .x.1063 0))) (let ((.def_125 (select D_27 F1_5))) (let ((.def_127 (select .def_125 (+ (* 4 L_27) (+ I1_0 (+ (* 4 (* R_27 V_27)) (* 4 (* S_27 (* R_27 R_27))))))))) (let ((.def_134 (<= R_27 L_27))) (let ((.def_141 (or C1_27 (and (and (= .x.1074 .def_127) (and (= .x.1063 .x.1071) (and (= .x.1071 (ite (= .x.1073 .x.1074) 1 0)) (not .def_134)))) (= .x.1073 .def_127))))) (let ((.def_143 (= D1_13 .x.1048))) (let ((.def_146 (= E1_8 .x.1059))) (let ((.def_149 (= F1_5 .x.1061))) (let ((.def_151 (= T_27 .x.1066))) (let ((.def_154 (= G1_0 .x.1067))) (let ((.def_156 (= H1_0 .x.1069))) (let ((.def_159 (= I1_0 .x.1072))) (let ((.def_163 (= L_27 .x.1058))) (let ((.def_170 (not .loc.11))) (let ((.def_176 (= (+ L_27 (* (- 1) .x.1058)) (- 1)))) (let ((.def_178 (and .def_94 .def_97))) (let ((.def_190 (not .loc.15))) (let ((.def_192 (not .loc.13))) (let ((.def_194 (not .loc.6))) (let ((.def_199 (not .loc.12))) (let ((.def_202 (and .def_94 (and C1_27 .def_163)))) (let ((.def_222 (<= R_27 S_27))) (let ((.def_224 (and .def_94 .def_163))) (let ((.def_228 (and .def_105 (and .def_103 (and .def_100 (and .def_97 .def_224)))))) (let ((.def_245 (<= R_27 V_27))) (let ((.def_247 (= .x.1058 0))) (let ((.def_253 (and .loc.6 (and .def_105 (and .def_103 (and .def_100 .def_178)))))) (let ((.def_254 (and .loc.7 .def_253))) (let ((.def_269 (not .loc.8))) (let ((.def_271 (= S_27 .x.1065))) (let ((.def_292 (or C1_27 (= (+ S_27 (* (- 1) .x.1065)) (- 1))))) (let ((.def_296 (= V_27 .x.1068))) (let ((.def_298 (and .def_224 .def_271))) (let ((.def_303 (and .loc.7 (and .def_105 (and .def_103 (and .def_100 (and .def_97 .def_298))))))) (let ((.def_321 (or C1_27 (= (+ V_27 (* (- 1) .x.1068)) (- 1))))) (let ((.def_382 (= .x.1065 0))) (let ((.def_383 (= .x.1068 0))) (let ((.def_386 (or C1_27 (and .def_247 (and .def_382 .def_383))))) (let ((.def_393 (and .def_94 .def_271))) (let ((.def_397 (and .def_105 (and .def_103 (and .def_100 (and .def_97 .def_393)))))) (let ((.def_420 (and .def_105 (and .def_103 (and .def_100 (and .def_97 (and .def_296 (and .def_202 .def_271)))))))) (let ((.def_421 (and .loc.6 .def_420))) (let ((.def_422 (and .loc.7 .def_421))) (let ((.def_442 (and .def_105 (and .def_103 (and .def_100 (and .def_97 (and .def_296 .def_298))))))) (let ((.def_443 (and .loc.6 .def_442))) (let ((.def_444 (and .loc.7 .def_443))) (let ((.def_523 (<= P_27 S_27))) (let ((.def_524 (or C1_27 .def_523))) (let ((.def_527 (not .loc.9))) (let ((.def_533 (and .def_105 (and .def_103 (and .def_100 (and .def_97 (and .def_224 .def_296))))))) (let ((.def_569 (not .loc.14))) (let ((.def_602 (<= P_27 V_27))) (let ((.def_603 (or C1_27 .def_602))) (let ((.def_681 (or C1_27 (and .def_383 (and .def_247 (not .def_523)))))) (let ((.def_736 (<= P_27 L_27))) (let ((.def_737 (or C1_27 .def_736))) (let ((.def_741 (= X_27 .x.1070))) (let ((.def_743 (= D_27 .x.1050))) (let ((.def_748 (select D_27 G1_0))) (let ((.def_753 (not .def_736))) (let ((.def_782 (= H_27 .x.1054))) (let ((.def_784 (= F_27 .x.1052))) (let ((.def_787 (= J_27 .x.1056))) (let ((.def_788 (and (and .def_782 .def_784) .def_787))) (let ((.def_790 (= N_27 .x.1060))) (let ((.def_793 (= P_27 .x.1062))) (let ((.def_796 (= R_27 .x.1064))) (let ((.def_836 (store D1_0 .x.1061 1))) (let ((.def_884 (and .loc.6 (and .def_105 (and .def_103 (and .def_100 (and .def_97 (and .def_741 (and .def_296 (and .def_271 (and .def_796 (and .def_94 (and .def_793 (and .def_790 (and .def_163 (and .def_787 (and .def_782 (and .def_784 (and C1_27 .def_743))))))))))))))))))) (let ((.def_904 (and .def_787 (and .def_782 (and .def_743 .def_784))))) (let ((.def_910 (and .def_271 (and .def_796 (and .def_94 (and .def_793 (and .def_790 (and .def_163 .def_904)))))))) (let ((.def_917 (and .loc.6 (and .def_105 (and .def_103 (and .def_100 (and .def_97 (and .def_741 (and .def_296 .def_910))))))))) (let ((.def_940 (and .def_271 (and .def_796 (and .def_94 (and .def_793 (and .def_790 .def_904))))))) (let ((.def_948 (and .loc.7 (and .loc.6 (and .def_105 (and .def_103 (and .def_100 (and .def_97 (and .def_741 (and .def_296 .def_940)))))))))) (let ((.def_966 (or C1_27 (and .def_247 (not .def_602))))) (and (and (= K_27 .x.1057) (and (= I_27 .x.1055) (and (= G_27 .x.1053) (and (= E_27 .x.1051) (and (= A_27 .x.1047) (= C_27 .x.1049)))))) (or (or (or (or (or (or (or (or (or (or (and (or (and (or (or (or (or (or (or (or (or (or (and (or (or (and (or (or (or (or (or (or (or (or (or (or (or (and (or (and (or (or (or (and (or (and (or (and .loc.10 (and .loc.7 (and (or (= .x.1066 .x.1069) .x.1075) (and (and (and (and (and (or C1_27 (and (= (store (store D1_13 F1_5 0) G1_0 0) .x.1048) (= .x.1069 0))) .def_94) .def_97) .def_100) .def_103) .def_105)))) (and (and (and (and (and (and (and (and (and (or C1_27 .def_110) (and .def_45 (and .def_49 .x.1075))) .def_141) .def_143) .def_146) .def_149) .def_151) .def_154) .def_156) .def_159)) (and (and (and (and .loc.6 .def_163) .loc.13) .loc.15) .def_170)) (and (or C1_27 .def_176) (and (and (and (and .def_159 (and .def_156 (and .def_154 (and .def_151 (and .def_149 (and .def_146 (and .def_143 (and .def_45 (and .def_49 (and .loc.11 (and .def_105 .def_178))))))))))) .def_190) .def_192) .def_194))) .def_199) (and .def_194 (and .def_192 (and .def_159 (and .def_156 (and .def_154 (and .def_151 (and .def_149 (and .def_146 (and .def_143 (and .loc.15 (and .loc.12 (and .loc.11 (and .loc.10 (and .loc.7 (and .def_105 (and .def_103 (and .def_100 (and .def_97 .def_202))))))))))))))))))) (and (or C1_27 .def_222) (and .def_194 (and .def_192 (and .def_159 (and .def_156 (and .def_154 (and .def_151 (and .def_149 (and .def_146 (and .def_143 (and .loc.15 (and .loc.12 (and .loc.11 (and .loc.10 (and .loc.7 .def_228)))))))))))))))) (and (or C1_27 (and (not .def_245) .def_247)) (and .def_192 (and .def_190 (and .def_159 (and .def_156 (and .def_154 (and .def_151 (and .def_149 (and .def_146 (and .def_143 (and .def_49 (and .def_199 (and .loc.11 .def_254)))))))))))))) (and .def_269 .def_271)) (and (and .def_194 (and .def_192 (and .def_159 (and .def_156 (and .def_154 (and .def_151 (and .def_149 (and .def_146 (and .def_143 (and .def_45 (and .def_49 (and .def_170 (and .loc.15 (and .loc.12 (and .loc.8 .def_228))))))))))))))) .def_292)) .def_296) (and (and .def_194 (and .def_192 (and .def_190 (and .def_159 (and .def_156 (and .def_154 (and .def_151 (and .def_149 (and .def_146 (and .def_143 (and .def_49 (and .loc.12 (and .loc.11 (and .def_269 .def_303)))))))))))))) .def_321)) (and (or .x.1075 (not .def_110)) (and .def_192 (and .def_190 (and .def_159 (and .def_156 (and .def_154 (and .def_151 (and .def_149 (and .def_146 (and .def_143 (and .def_141 (and .def_45 (and .def_49 (and .def_199 (and .def_170 (and .def_269 (and .loc.6 (and .def_105 (and .def_296 (and .def_163 .def_271))))))))))))))))))))) (and .def_192 (and .def_190 (and .def_159 (and .def_156 (and .def_154 (and .def_151 (and .def_149 (and .def_146 (and .def_143 (and .def_141 (and .def_45 (and .def_49 (and .def_199 (and .def_170 (and .def_269 (and .loc.6 (and .def_296 (and .def_271 (and .def_163 (and C1_27 .x.1075))))))))))))))))))))) (and (and .def_192 (and .def_159 (and .def_156 (and .def_154 (and .def_151 (and .def_149 (and .def_146 (and .def_143 (and .def_45 (and .def_170 (and .loc.15 (and .loc.12 (and .def_269 (and .loc.10 .def_253)))))))))))))) .def_386)) (and (or C1_27 (and .def_383 (and .def_247 (not .def_222)))) (and .def_194 (and .def_192 (and .def_190 (and .def_159 (and .def_156 (and .def_154 (and .def_151 (and .def_149 (and .def_146 (and .def_143 (and .loc.12 (and .loc.11 (and .def_269 (and .loc.10 (and .loc.7 .def_397))))))))))))))))) (and .def_190 (and .def_159 (and .def_156 (and .def_154 (and .def_151 (and .def_149 (and .def_146 (and .def_143 (and .def_49 (and .def_199 (and .def_170 (and .loc.13 (and .def_269 .def_422)))))))))))))) (and (or C1_27 .def_245) (and .def_190 (and .def_159 (and .def_156 (and .def_154 (and .def_151 (and .def_149 (and .def_146 (and .def_143 (and .def_49 (and .def_199 (and .def_170 (and .loc.13 (and .def_269 .def_444))))))))))))))) (and .def_192 (and .def_190 (and .def_159 (and .def_156 (and .def_154 (and .def_151 (and .def_149 (and .def_146 (and .def_143 (and .def_45 (and .def_49 (and .def_170 (and .loc.12 (and .def_269 .def_421))))))))))))))) (and (or C1_27 .def_134) (and .def_192 (and .def_190 (and .def_159 (and .def_156 (and .def_154 (and .def_151 (and .def_149 (and .def_146 (and .def_143 (and .def_45 (and .def_49 (and .def_170 (and .loc.12 (and .def_269 .def_443)))))))))))))))) (and .def_194 (and .def_192 (and .def_159 (and .def_156 (and .def_154 (and .def_151 (and .def_149 (and .def_146 (and .def_143 (and .def_45 (and .def_199 (and .loc.15 (and .loc.11 (and .def_269 (and .loc.10 .def_420)))))))))))))))) (and (and .def_194 (and .def_192 (and .def_159 (and .def_156 (and .def_154 (and .def_151 (and .def_149 (and .def_146 (and .def_143 (and .def_45 (and .def_199 (and .loc.15 (and .loc.11 (and .def_269 (and .loc.10 .def_442))))))))))))))) .def_524)) .def_527) (and .def_292 (and .def_194 (and .def_192 (and .def_159 (and .def_156 (and .def_154 (and .def_151 (and .def_149 (and .def_146 (and .def_143 (and .def_45 (and .def_49 (and .def_199 (and .def_170 (and .loc.15 (and .def_269 (and .loc.9 .def_533)))))))))))))))))) (and .def_386 (and .def_192 (and .def_159 (and .def_156 (and .def_154 (and .def_151 (and .def_149 (and .def_146 (and .def_143 (and .def_49 (and .def_199 (and .def_170 (and .loc.15 (and .loc.9 (and .loc.8 .def_254)))))))))))))))) .def_569) (and .def_192 (and .def_190 (and .def_159 (and .def_156 (and .def_154 (and .def_151 (and .def_149 (and .def_146 (and .def_143 (and .def_49 (and .def_199 (and .def_170 (and .loc.14 (and .def_527 (and .loc.8 .def_422)))))))))))))))) (and (and .def_192 (and .def_190 (and .def_159 (and .def_156 (and .def_154 (and .def_151 (and .def_149 (and .def_146 (and .def_143 (and .def_49 (and .def_199 (and .def_170 (and .loc.14 (and .def_527 (and .loc.8 .def_444))))))))))))))) .def_603)) (and .def_321 (and .def_194 (and .def_190 (and .def_159 (and .def_156 (and .def_154 (and .def_151 (and .def_149 (and .def_146 (and .def_143 (and .def_49 (and .def_569 (and .loc.13 (and .loc.12 (and .loc.11 (and .def_527 (and .loc.8 .def_303)))))))))))))))))) (and .def_194 (and .def_190 (and .def_159 (and .def_156 (and .def_154 (and .def_151 (and .def_149 (and .def_146 (and .def_143 (and .def_49 (and .loc.14 (and .loc.13 (and .loc.12 (and .loc.11 (and .loc.9 (and .loc.8 (and .loc.7 .def_420)))))))))))))))))) (and .def_524 (and .def_194 (and .def_190 (and .def_159 (and .def_156 (and .def_154 (and .def_151 (and .def_149 (and .def_146 (and .def_143 (and .def_49 (and .loc.14 (and .loc.13 (and .loc.12 (and .loc.11 (and .loc.9 (and .loc.8 (and .loc.7 .def_442))))))))))))))))))) (and (and .def_194 (and .def_190 (and .def_159 (and .def_156 (and .def_154 (and .def_151 (and .def_149 (and .def_146 (and .def_143 (and .def_45 (and .def_569 (and .loc.13 (and .loc.12 (and .loc.11 (and .def_527 (and .def_269 (and .loc.10 .def_397))))))))))))))))) .def_681)) (and .def_292 (and .def_194 (and .def_190 (and .def_159 (and .def_156 (and .def_154 (and .def_151 (and .def_149 (and .def_146 (and .def_143 (and .def_45 (and .def_49 (and .def_170 (and .loc.14 (and .loc.13 (and .loc.12 (and .loc.9 (and .loc.8 .def_533))))))))))))))))))) (and .def_190 (and .def_159 (and .def_156 (and .def_154 (and .def_151 (and .def_149 (and .def_146 (and .def_143 (and .def_45 (and .def_49 (and .def_569 (and .def_170 (and .loc.13 (and .loc.12 (and .def_527 (and .loc.8 .def_421))))))))))))))))) (and (and .def_190 (and .def_159 (and .def_156 (and .def_154 (and .def_151 (and .def_149 (and .def_146 (and .def_143 (and .def_45 (and .def_49 (and .def_569 (and .def_170 (and .loc.13 (and .loc.12 (and .def_527 (and .loc.8 .def_443)))))))))))))))) .def_737)) (and .def_741 .def_743)) (and (or C1_27 (and (= .x.1050 (store D_27 F1_5 (store .def_125 (+ (* 4 L_27) (+ I1_0 (+ (* 4 (* R_27 V_27)) (* 4 (* S_27 (* R_27 R_27)))))) (select .def_748 (+ (* 4 L_27) (+ E1_8 (+ (* 4 (* R_27 V_27)) (* 4 (* S_27 (* R_27 R_27)))))))))) (and .def_176 .def_753))) (and .def_190 (and .def_159 (and .def_156 (and .def_154 (and .def_151 (and .def_149 (and .def_146 (and .def_143 (and .def_45 (and .def_49 (and .def_569 (and .def_199 (and .loc.13 (and .loc.11 (and .def_527 (and .loc.8 (and .loc.6 (and .def_105 (and .def_103 (and .def_100 (and .def_97 (and .def_296 .def_393)))))))))))))))))))))))) (and (and (and .def_788 .def_790) .def_793) .def_796)) (and (or C1_27 (and (and (= .x.1056 0) (= .x.1052 0)) (= D1_0 (store D1_13 0 0)))) (and (or .x.1075 (and (and (and (and (and (and (and (and (and (and .def_382 (and .def_383 (and (and .def_247 (and (and (not (<= .x.1047 .x.1067)) (not (<= .x.1047 .x.1061))) (not (<= .x.1064 .x.1062)))) (= .x.1059 0)))) (= .x.1064 1000)) (= .x.1062 500)) (not (= .x.1061 0))) (= .x.1072 0)) (not (= .x.1067 0))) (= (select D1_0 .x.1061) 0)) (= (select .def_836 .x.1067) 0)) (= .x.1054 (store (store H_27 .x.1061 (* 4 (* .x.1064 (* .x.1064 .x.1064)))) .x.1067 (* 4 (* .x.1064 (* .x.1064 .x.1064)))))) (= .x.1048 (store .def_836 .x.1067 1)))) (and .def_190 (and .def_151 (and .def_45 (and .def_49 (and .def_170 (and .loc.14 (and .loc.13 (and .loc.12 (and .loc.9 (and .loc.8 (and .loc.6 (and .def_105 (and .def_97 (and .def_94 .def_743))))))))))))))))) (and .def_190 (and .def_159 (and .def_156 (and .def_154 (and .def_151 (and .def_149 (and .def_146 (and .def_143 (and .def_49 (and .def_199 (and .def_170 (and .loc.14 (and .loc.13 (and .def_269 (and .loc.9 (and .loc.7 .def_884))))))))))))))))) (and .def_603 (and .def_190 (and .def_159 (and .def_156 (and .def_154 (and .def_151 (and .def_149 (and .def_146 (and .def_143 (and .def_49 (and .def_199 (and .def_170 (and .loc.14 (and .loc.13 (and .def_269 (and .loc.9 (and .loc.7 .def_917)))))))))))))))))) (and (and .def_190 (and .def_159 (and .def_156 (and .def_154 (and .def_151 (and .def_149 (and .def_146 (and .def_143 (and .def_49 (and .def_569 (and .def_199 (and .loc.13 (and .loc.11 (and .def_527 (and .loc.8 .def_948))))))))))))))) .def_966)) (and .def_321 (and .def_194 (and .def_192 (and .def_190 (and .def_159 (and .def_156 (and .def_154 (and .def_151 (and .def_149 (and .def_146 (and .def_143 (and .def_49 (and .loc.14 (and .loc.12 (and .loc.11 (and .def_269 (and .loc.9 (and .loc.7 (and .def_105 (and .def_103 (and .def_100 (and .def_97 (and .def_741 .def_910)))))))))))))))))))))))) (and .def_681 (and .def_194 (and .def_192 (and .def_190 (and .def_159 (and .def_156 (and .def_154 (and .def_151 (and .def_149 (and .def_146 (and .def_143 (and .def_49 (and .loc.14 (and .loc.12 (and .loc.11 (and .loc.9 (and .loc.8 (and .loc.7 (and .def_105 (and .def_103 (and .def_100 (and .def_97 (and .def_741 .def_940)))))))))))))))))))))))) (and .def_192 (and .def_190 (and .def_159 (and .def_156 (and .def_154 (and .def_151 (and .def_149 (and .def_146 (and .def_143 (and .def_45 (and .def_49 (and .def_170 (and .loc.14 (and .loc.12 (and .def_269 (and .loc.9 .def_884))))))))))))))))) (and .def_737 (and .def_192 (and .def_190 (and .def_159 (and .def_156 (and .def_154 (and .def_151 (and .def_149 (and .def_146 (and .def_143 (and .def_45 (and .def_49 (and .def_170 (and .loc.14 (and .loc.12 (and .def_269 (and .loc.9 .def_917)))))))))))))))))) (and (or C1_27 (and (= .x.1050 (store D_27 G1_0 (store .def_748 (+ (* 4 L_27) (+ E1_8 (+ (* 4 (* R_27 V_27)) (* 4 (* S_27 (* R_27 R_27)))))) N_27))) (and .def_176 (and (<= (- 2147483648) N_27) (and .def_753 (<= N_27 2147483647)))))) (and .def_192 (and .def_190 (and .def_159 (and .def_156 (and .def_154 (and .def_151 (and .def_149 (and .def_146 (and .def_143 (and .def_45 (and .def_49 (and .def_199 (and .loc.14 (and .loc.11 (and .def_269 (and .loc.9 (and .loc.6 (and .def_105 (and .def_103 (and .def_100 (and .def_97 (and .def_741 (and .def_296 (and .def_271 (and .def_796 (and .def_94 (and .def_788 .def_793))))))))))))))))))))))))))))) (and .def_966 (and .def_192 (and .def_190 (and .def_159 (and .def_156 (and .def_154 (and .def_151 (and .def_149 (and .def_146 (and .def_143 (and .def_49 (and .def_199 (and .loc.14 (and .loc.11 (and .def_269 (and .loc.9 .def_948))))))))))))))))))))))))))))))))))))))))))))))))))))))))))))))))))))))))))))))))))))))))))))))))))))) (state |.x.1047| |.x.1048| |.x.1049| |.x.1050| |.x.1051| |.x.1052| |.x.1053| |.x.1054| |.x.1055| |.x.1056| |.x.1057| |.x.1058| |.x.1059| |.x.1060| |.x.1061| |.x.1062| |.x.1063| |.x.1064| |.x.1065| |.x.1066| |.x.1067| |.x.1068| |.x.1069| |.x.1070| |.x.1071| |.x.1072| |.x.1073| |.x.1074| |.x.1075| |.loc.11| |.loc.12| |.loc.13| |.loc.14| |.loc.15| |.xtv.1|))))
(assert (forall ((|A_27| Int) (|D1_13| (Array Int Int)) (|C_27| (Array Int Int)) (|D_27| (Array Int Int)) (|E_27| (Array Int Int)) (|F_27| Int) (|G_27| Int) (|H_27| (Array Int Int)) (|I_27| (Array Int Int)) (|J_27| Int) (|K_27| Int) (|L_27| Int) (|E1_8| Int) (|N_27| Int) (|F1_5| Int) (|P_27| Int) (|Q_27| Int) (|R_27| Int) (|S_27| Int) (|T_27| Int) (|G1_0| Int) (|V_27| Int) (|H1_0| Int) (|X_27| Int) (|Y_27| Int) (|I1_0| Int) (|A1_27| Int) (|B1_27| Int) (|C1_27| Bool) (|.loc.6| Bool) (|.loc.7| Bool) (|.loc.8| Bool) (|.loc.9| Bool) (|.loc.10| Bool) (|D1_0| (Array Int Int)) (|.x.1057| Int) (|.x.1055| (Array Int Int)) (|.x.1053| Int) (|.x.1051| (Array Int Int)) (|.x.1047| Int) (|.x.1049| (Array Int Int)) (|.x.1066| Int) (|.x.1069| Int) (|.x.1075| Bool) (|.x.1048| (Array Int Int)) (|.x.1063| Int) (|.x.1071| Int) (|.x.1073| Int) (|.x.1074| Int) (|.x.1059| Int) (|.x.1061| Int) (|.x.1067| Int) (|.x.1072| Int) (|.x.1058| Int) (|.loc.13| Bool) (|.loc.15| Bool) (|.loc.11| Bool) (|.loc.12| Bool) (|.x.1065| Int) (|.x.1068| Int) (|.loc.14| Bool) (|.x.1070| Int) (|.x.1050| (Array Int Int)) (|.x.1054| (Array Int Int)) (|.x.1052| Int) (|.x.1056| Int) (|.x.1060| Int) (|.x.1062| Int) (|.x.1064| Int) (|.xtv.1| (Array Int Int))) (=> (state |A_27| |D1_13| |C_27| |D_27| |E_27| |F_27| |G_27| |H_27| |I_27| |J_27| |K_27| |L_27| |E1_8| |N_27| |F1_5| |P_27| |Q_27| |R_27| |S_27| |T_27| |G1_0| |V_27| |H1_0| |X_27| |Y_27| |I1_0| |A1_27| |B1_27| |C1_27| |.loc.6| |.loc.7| |.loc.8| |.loc.9| |.loc.10| |D1_0|) (not (and C1_27 (and .loc.10 (and (not .loc.9) (and .loc.8 (and (not .loc.7) (not .loc.6))))))))))
(check-sat)
